c description: Random 3-CNF over 21 variables and 89 clauses
c generator: CNFgen (0.9.2)
c copyright: (C) 2012-2022 Massimo Lauria <massimo.lauria@uniroma1.it>
c url: https://massimolauria.net/cnfgen
c command line: cnfgen --output CNF_4.28/21_bit_89_564.cnf randkcnf 3 21 89
c
p cnf 21 89
1 -11 -17 0
7 11 19 0
-2 -4 13 0
2 9 14 0
4 5 -14 0
5 6 -14 0
4 15 19 0
2 -5 6 0
14 -15 -19 0
-6 11 20 0
-5 -6 11 0
4 10 20 0
-1 -10 -16 0
-5 7 -18 0
-4 10 -20 0
-6 13 18 0
-1 2 18 0
11 -13 -15 0
1 8 19 0
6 -13 -16 0
-2 -5 10 0
-9 15 -19 0
-1 -8 9 0
1 2 6 0
6 -10 -13 0
-14 -16 -20 0
-1 5 -6 0
7 16 -18 0
14 -19 20 0
4 17 -21 0
-1 -9 -13 0
6 8 -13 0
-5 8 16 0
-6 7 19 0
3 -4 -9 0
10 14 16 0
-4 -9 15 0
-5 -15 -21 0
8 -11 -14 0
-2 11 -13 0
-1 -6 14 0
5 -10 16 0
-2 -3 -11 0
-8 11 -19 0
-3 -7 -11 0
2 3 5 0
2 -11 -14 0
-11 -15 17 0
4 -6 -10 0
7 11 -19 0
8 14 -19 0
-12 16 -18 0
-5 -9 12 0
7 15 20 0
-6 -14 -20 0
8 -12 20 0
5 8 -10 0
-1 10 -16 0
3 13 -15 0
-11 15 -17 0
-5 -11 -19 0
6 -7 -13 0
2 4 -14 0
-12 -18 20 0
-1 -10 21 0
1 5 17 0
-2 12 14 0
11 15 17 0
-2 11 21 0
1 -11 17 0
-8 -10 -14 0
-4 -8 -20 0
6 14 -18 0
-2 11 16 0
10 15 -16 0
8 17 -19 0
-2 -6 -11 0
-3 -5 -7 0
1 3 20 0
-4 -6 12 0
-3 4 12 0
6 13 16 0
-6 -11 21 0
-3 13 17 0
-2 -14 -17 0
-4 11 17 0
6 9 16 0
-1 4 20 0
-8 10 -15 0
